db/data/26729305281602440332333725061351510711.z3.out
-------------------
2500.233029020
